34 34
21
3 3 9 10
3 4 3 0
3 5 3 29
3 6 31 28
3 7 0 0
3 8 31 20
3 9 27 11
3 10 9 0
3 11 31 0
3 12 12 22
3 13 0 7
3 14 0 20
3 21 9 13
3 22 12 0
3 25 3 4
3 34 6 0
4 4 30 16
4 5 30 11
4 11 27 0
4 14 27 20
12 34 15 0
